results_rootrelaxation/bin012_070_017.srr.sol
solution status: optimal solution found
objective value:                     7.06493506493507
_var57_                             0.136363636363635 	(obj:0)
_var720_                             0.37012987012987 	(obj:1)
_var731_                            0.603896103896104 	(obj:0)
_var732_                            0.168831168831168 	(obj:0)
_var763_                           0.0454545454545447 	(obj:1)
_var771_                           0.0779220779220775 	(obj:2)
_var772_                            0.194805194805195 	(obj:0)
_var780_                            0.480519480519481 	(obj:0)
_var793_                           0.0389610389610385 	(obj:2)
_var794_                            0.285714285714286 	(obj:1)
_var802_                             0.27922077922078 	(obj:0)
_var810_                            0.506493506493506 	(obj:1)
_var814_                           0.0194805194805185 	(obj:1)
_var820_                            0.253246753246754 	(obj:0)
_var822_                            0.733766233766234 	(obj:0)
_var828_                            0.383116883116884 	(obj:0)
_var831_                            0.259740259740259 	(obj:1)
_var843_                            0.461038961038961 	(obj:0)
_var845_                           0.0259740259740259 	(obj:1)
_var856_                            0.272727272727272 	(obj:1)
_var858_                           0.0844155844155836 	(obj:2)
_var860_                            0.305194805194805 	(obj:0)
_var861_                             0.37012987012987 	(obj:0)
_var864_                            0.155844155844156 	(obj:0)
_var869_                            0.370129870129871 	(obj:1)
_var870_                            0.168831168831168 	(obj:0)
_var871_                            0.149350649350649 	(obj:2)
_var875_                           0.0779220779220775 	(obj:2)
_var877_                           0.0909090909090901 	(obj:1)
_var879_                           0.0909090909090901 	(obj:0)
_var881_                           0.0779220779220777 	(obj:0)
_var882_                            0.454545454545454 	(obj:1)
_var887_                            0.227272727272728 	(obj:1)
_var888_                           0.0129870129870133 	(obj:0)
_var889_                             0.24025974025974 	(obj:1)
_var890_                           0.0454545454545449 	(obj:1)
_var893_                           0.0714285714285722 	(obj:1)
_var897_                            0.123376623376624 	(obj:3)
_var898_                            0.266233766233766 	(obj:1)
_var900_                           0.0519480519480517 	(obj:2)
_var901_                            0.344155844155845 	(obj:2)
_var902_                             0.11038961038961 	(obj:0)
_var906_                           0.0714285714285716 	(obj:1)
_var907_                            0.032467532467533 	(obj:0)
_var909_                            0.103896103896104 	(obj:1)
_var912_                            0.103896103896103 	(obj:1)
_var914_                             0.12987012987013 	(obj:2)
_var915_                            0.025974025974026 	(obj:0)
_var916_                           0.0909090909090907 	(obj:1)
_var917_                            0.064935064935065 	(obj:1)
_var918_                             0.25974025974026 	(obj:1)
_var919_                           0.0519480519480515 	(obj:1)
_var921_                           0.0844155844155845 	(obj:1)
_var922_                            0.032467532467533 	(obj:1)
_var924_                           0.0389610389610384 	(obj:0)
_var925_                            0.188311688311689 	(obj:0)
_var926_                            0.097402597402598 	(obj:1)
_var928_                           0.0649350649350651 	(obj:2)
_var929_                           0.0714285714285729 	(obj:2)
