results_rootrelaxation/bin012_070_017.srr.log
SCIP version 8.0.3.5 [precision: 8 byte] [memory: block] [mode: optimized] [LP solver: Soplex 6.0.1.3] [GitHash: 438792519e]
Copyright (c) 2002-2023 Zuse Institute Berlin (ZIB)

External libraries: 
  Readline 8.1         GNU library for command line editing (gnu.org/s/readline)
  Soplex 6.0.1.3       Linear Programming Solver developed at Zuse Institute Berlin (soplex.zib.de) [GitHash: 713be0fe]
  CppAD 20180000.0     Algorithmic Differentiation of C++ algorithms developed by B. Bell (github.com/coin-or/CppAD)
  ZLIB 1.2.11          General purpose compression library by J. Gailly and M. Adler (zlib.net)
  bliss 0.77           Computing Graph Automorphism Groups by T. Junttila and P. Kaski (www.tcs.hut.fi/Software/bliss/)

user parameter file <scip.set> not found - using default parameters

srr/relaxation = TRUE

read problem <instances/bin012_070_017.srr>
============

Original problem: 
original problem has 0 variables (0 bin, 0 int, 0 impl, 0 cont) and 77 constraints

presolving:
presolving (1 rounds: 1 fast, 1 medium, 1 exhaustive):
 0 deleted vars, 0 deleted constraints, 0 added constraints, 0 tightened bounds, 0 added holes, 0 changed sides, 0 changed coefficients
 0 implications, 0 cliques
presolved problem has 0 variables (0 bin, 0 int, 0 impl, 0 cont) and 77 constraints
     77 constraints of type <linear>
Presolving Time: 0.00

 time | node  | left  |LP iter|LP it/n|mem/heur|mdpt |vars |cons |rows |cuts |sepa|confs|strbr|  dualbound   | primalbound  |  gap   | compl. 
  0.0s|     1 |     0 |     1 |     - |   710k |   0 |   1 |  77 |  77 |   0 |  0 |   0 |   0 |      --      |      --      |    Inf | unknown
r 0.1s|     1 |     0 |  1133 |     - |simplero|   0 | 707 |  77 |  77 |   0 |  0 |   0 |   0 |      --      | 2.647355e+01 |    Inf | unknown
r 0.1s|     1 |     0 |  1160 |     - |simplero|   0 | 718 |  77 |  77 |   0 |  0 |   0 |   0 |      --      | 2.565481e+01 |    Inf | unknown
r 0.1s|     1 |     0 |  1221 |     - |simplero|   0 | 729 |  77 |  77 |   0 |  0 |   0 |   0 |      --      | 2.250445e+01 |    Inf | unknown
r 0.1s|     1 |     0 |  1281 |     - |simplero|   0 | 740 |  77 |  77 |   0 |  0 |   0 |   0 |      --      | 2.025300e+01 |    Inf | unknown
r 0.1s|     1 |     0 |  1348 |     - |simplero|   0 | 751 |  77 |  77 |   0 |  0 |   0 |   0 |      --      | 1.827514e+01 |    Inf | unknown
r 0.1s|     1 |     0 |  1412 |     - |simplero|   0 | 762 |  77 |  77 |   0 |  0 |   0 |   0 |      --      | 1.667777e+01 |    Inf | unknown
r 0.1s|     1 |     0 |  1472 |     - |simplero|   0 | 773 |  77 |  77 |   0 |  0 |   0 |   0 |      --      | 1.508300e+01 |    Inf | unknown
r 0.1s|     1 |     0 |  1547 |     - |simplero|   0 | 784 |  77 |  77 |   0 |  0 |   0 |   0 |      --      | 1.345374e+01 |    Inf | unknown
r 0.1s|     1 |     0 |  1577 |     - |simplero|   0 | 795 |  77 |  77 |   0 |  0 |   0 |   0 |      --      | 1.306281e+01 |    Inf | unknown
r 0.1s|     1 |     0 |  1589 |     - |simplero|   0 | 795 |  77 |  77 |   0 |  0 |   0 |   0 |      --      | 1.292780e+01 |    Inf | unknown
r 0.1s|     1 |     0 |  1630 |     - |simplero|   0 | 806 |  77 |  77 |   0 |  0 |   0 |   0 |      --      | 1.223654e+01 |    Inf | unknown
r 0.1s|     1 |     0 |  1638 |     - |simplero|   0 | 806 |  77 |  77 |   0 |  0 |   0 |   0 |      --      | 1.219964e+01 |    Inf | unknown
r 0.1s|     1 |     0 |  1642 |     - |simplero|   0 | 806 |  77 |  77 |   0 |  0 |   0 |   0 |      --      | 1.219544e+01 |    Inf | unknown
r 0.1s|     1 |     0 |  1689 |     - |simplero|   0 | 817 |  77 |  77 |   0 |  0 |   0 |   0 |      --      | 1.093593e+01 |    Inf | unknown
 time | node  | left  |LP iter|LP it/n|mem/heur|mdpt |vars |cons |rows |cuts |sepa|confs|strbr|  dualbound   | primalbound  |  gap   | compl. 
r 0.1s|     1 |     0 |  1697 |     - |simplero|   0 | 817 |  77 |  77 |   0 |  0 |   0 |   0 |      --      | 1.092308e+01 |    Inf | unknown
r 0.1s|     1 |     0 |  1702 |     - |simplero|   0 | 817 |  77 |  77 |   0 |  0 |   0 |   0 |      --      | 1.091427e+01 |    Inf | unknown
r 0.1s|     1 |     0 |  1706 |     - |simplero|   0 | 817 |  77 |  77 |   0 |  0 |   0 |   0 |      --      | 1.091415e+01 |    Inf | unknown
r 0.1s|     1 |     0 |  1738 |     - |simplero|   0 | 828 |  77 |  77 |   0 |  0 |   0 |   0 |      --      | 1.020735e+01 |    Inf | unknown
r 0.1s|     1 |     0 |  1754 |     - |simplero|   0 | 828 |  77 |  77 |   0 |  0 |   0 |   0 |      --      | 1.004101e+01 |    Inf | unknown
r 0.1s|     1 |     0 |  1785 |     - |simplero|   0 | 839 |  77 |  77 |   0 |  0 |   0 |   0 |      --      | 9.486770e+00 |    Inf | unknown
r 0.1s|     1 |     0 |  1795 |     - |simplero|   0 | 839 |  77 |  77 |   0 |  0 |   0 |   0 |      --      | 9.346768e+00 |    Inf | unknown
r 0.1s|     1 |     0 |  1802 |     - |simplero|   0 | 839 |  77 |  77 |   0 |  0 |   0 |   0 |      --      | 9.327176e+00 |    Inf | unknown
r 0.1s|     1 |     0 |  1834 |     - |simplero|   0 | 850 |  77 |  77 |   0 |  0 |   0 |   0 |      --      | 9.075729e+00 |    Inf | unknown
r 0.1s|     1 |     0 |  1843 |     - |simplero|   0 | 850 |  77 |  77 |   0 |  0 |   0 |   0 |      --      | 9.014446e+00 |    Inf | unknown
r 0.1s|     1 |     0 |  1846 |     - |simplero|   0 | 850 |  77 |  77 |   0 |  0 |   0 |   0 |      --      | 9.007614e+00 |    Inf | unknown
r 0.1s|     1 |     0 |  1886 |     - |simplero|   0 | 861 |  77 |  77 |   0 |  0 |   0 |   0 |      --      | 8.348079e+00 |    Inf | unknown
r 0.1s|     1 |     0 |  1889 |     - |simplero|   0 | 861 |  77 |  77 |   0 |  0 |   0 |   0 |      --      | 8.347043e+00 |    Inf | unknown
r 0.1s|     1 |     0 |  1919 |     - |simplero|   0 | 870 |  77 |  77 |   0 |  0 |   0 |   0 |      --      | 7.929751e+00 |    Inf | unknown
r 0.1s|     1 |     0 |  1945 |     - |simplero|   0 | 881 |  77 |  77 |   0 |  0 |   0 |   0 |      --      | 7.818672e+00 |    Inf | unknown
 time | node  | left  |LP iter|LP it/n|mem/heur|mdpt |vars |cons |rows |cuts |sepa|confs|strbr|  dualbound   | primalbound  |  gap   | compl. 
r 0.1s|     1 |     0 |  1950 |     - |simplero|   0 | 881 |  77 |  77 |   0 |  0 |   0 |   0 |      --      | 7.811546e+00 |    Inf | unknown
r 0.1s|     1 |     0 |  1981 |     - |simplero|   0 | 892 |  77 |  77 |   0 |  0 |   0 |   0 |      --      | 7.387503e+00 |    Inf | unknown
  0.1s|     1 |     0 |  2002 |     - |  4209k |   0 | 903 |  77 |  77 |   0 |  0 |   0 |   0 |      --      | 7.387503e+00 |    Inf | unknown
r 0.1s|     1 |     0 |  2002 |     - |simplero|   0 | 903 |  77 |  77 |   0 |  0 |   0 |   0 |      --      | 7.239680e+00 |    Inf | unknown
r 0.1s|     1 |     0 |  2019 |     - |simplero|   0 | 913 |  77 |  77 |   0 |  0 |   0 |   0 |      --      | 7.167542e+00 |    Inf | unknown
r 0.1s|     1 |     0 |  2026 |     - |simplero|   0 | 913 |  77 |  77 |   0 |  0 |   0 |   0 |      --      | 7.156508e+00 |    Inf | unknown
r 0.1s|     1 |     0 |  2044 |     - |simplero|   0 | 919 |  77 |  77 |   0 |  0 |   0 |   0 |      --      | 7.117318e+00 |    Inf | unknown
r 0.1s|     1 |     0 |  2052 |     - |simplero|   0 | 919 |  77 |  77 |   0 |  0 |   0 |   0 |      --      | 7.104839e+00 |    Inf | unknown
r 0.1s|     1 |     0 |  2065 |     - |simplero|   0 | 923 |  77 |  77 |   0 |  0 |   0 |   0 |      --      | 7.083594e+00 |    Inf | unknown
r 0.1s|     1 |     0 |  2070 |     - |simplero|   0 | 926 |  77 |  77 |   0 |  0 |   0 |   0 |      --      | 7.070061e+00 |    Inf | unknown
r 0.1s|     1 |     0 |  2074 |     - |simplero|   0 | 929 |  77 |  77 |   0 |  0 |   0 |   0 |      --      | 7.066029e+00 |    Inf | unknown
r 0.1s|     1 |     0 |  2075 |     - |simplero|   0 | 930 |  77 |  77 |   0 |  0 |   0 |   0 |      --      | 7.064935e+00 |    Inf | unknown
  0.1s|     1 |     0 |  2075 |     - |  4295k |   0 | 930 |  77 |  77 |   0 |  0 |   0 |   0 | 7.064935e+00 | 7.064935e+00 |   0.00%| unknown
  0.1s|     1 |     0 |  2075 |     - |  4295k |   0 | 930 |  77 |  77 |   0 |  0 |   0 |   0 | 7.064935e+00 | 7.064935e+00 |   0.00%| unknown

SCIP Status        : problem is solved [optimal solution found]
Solving Time (sec) : 0.11
Solving Nodes      : 1
Primal Bound       : +7.06493506493507e+00 (40 solutions)
Dual Bound         : +7.06493506493507e+00
Gap                : 0.00 %

written transformed problem to file <results_rootrelaxation/bin012_070_017.srr.lp>
written transformed problem to file <results_rootrelaxation/bin012_070_017.srr.cip>

written solution information to file <results_rootrelaxation/bin012_070_017.srr.sol>



